p cnf 20 15
-18 8 -17 4 -2 13 16 5 -9 -10 0
8 -15 -18 -14 -10 -13 4 -1 6 -9 0
-6 -5 15 9 -1 17 8 -19 -16 7 0
12 -1 6 19 16 5 -18 -17 -13 -20 0
-9 -6 20 5 -16 19 13 14 -12 -8 0
15 -7 -2 -4 -16 -20 17 -12 19 -13 0
17 -3 -13 14 -18 -4 15 -8 -2 5 0
16 9 -3 -14 -13 -2 11 20 19 10 0
-18 -10 16 -15 -19 4 2 -5 -11 20 0
4 7 -10 8 9 -1 -14 16 -2 5 0
8 -5 -17 -11 -20 13 16 -10 1 -14 0
6 -3 10 15 12 9 -19 18 14 -7 0
-13 -18 -20 12 15 -17 4 -3 -2 10 0
-4 -16 8 -20 10 6 11 -12 14 -1 0
-20 -13 -9 12 17 -3 -4 16 7 -18 0
